\ENCODING=ISO-8859-1
\Problem name: IloCplex

Maximize
 obj: 675 vnp1 + 724 vnp2 + 253 vnp3 + 989 vnp4 + 1213 vnp5 + 764 vnp6
      + 634 vnp7 + 495 vnp8 + [ - 256 vn2_vnp1_sn18 * vn1_vnp1_sn1
      - 88 vn2_vnp1_sn18 * vn3_vnp1_sn12 - 324 vn1_vnp1_sn1 * vn2_vnp1_sn17
      - 196 vn1_vnp1_sn1 * vn2_vnp1_sn5 - 326 vn1_vnp1_sn1 * vn3_vnp1_sn12
      - 72 vn2_vnp1_sn17 * vn3_vnp1_sn12 - 384 vn2_vnp1_sn5 * vn3_vnp1_sn12
      - 114 vn3_vnp2_sn17 * vn1_vnp2_sn2 - 164 vn3_vnp2_sn17 * vn2_vnp2_sn20
      - 340 vn3_vnp2_sn17 * vn2_vnp2_sn3 - 276 vn3_vnp2_sn17 * vn2_vnp2_sn4
      - 68 vn3_vnp2_sn17 * vn4_vnp2_sn19 - 100 vn3_vnp2_sn17 * vn4_vnp2_sn5
      - 84 vn1_vnp2_sn2 * vn3_vnp2_sn18 - 62 vn1_vnp2_sn2 * vn3_vnp2_sn14
      - 240 vn1_vnp2_sn2 * vn2_vnp2_sn20 - 72 vn1_vnp2_sn2 * vn2_vnp2_sn3
      - 64 vn1_vnp2_sn2 * vn2_vnp2_sn4 - 168 vn3_vnp2_sn18 * vn2_vnp2_sn20
      - 432 vn3_vnp2_sn18 * vn2_vnp2_sn3 - 280 vn3_vnp2_sn18 * vn2_vnp2_sn4
      - 48 vn3_vnp2_sn18 * vn4_vnp2_sn19 - 90 vn3_vnp2_sn18 * vn4_vnp2_sn5
      - 244 vn3_vnp2_sn14 * vn2_vnp2_sn20 - 148 vn3_vnp2_sn14 * vn2_vnp2_sn3
      - 212 vn3_vnp2_sn14 * vn2_vnp2_sn4 - 90 vn3_vnp2_sn14 * vn4_vnp2_sn19
      - 50 vn3_vnp2_sn14 * vn4_vnp2_sn5 - 96 vn3_vnp3_sn14 * vn1_vnp3_sn9
      - 80 vn3_vnp3_sn14 * vn1_vnp3_sn15 - 166 vn3_vnp3_sn14 * vn4_vnp3_sn19
      - 106 vn1_vnp3_sn9 * vn2_vnp3_sn13 - 40 vn1_vnp3_sn15 * vn2_vnp3_sn13
      - 90 vn4_vnp3_sn19 * vn2_vnp3_sn13 - 66 vn2_vnp4_sn10 * vn1_vnp4_sn15
      - 96 vn2_vnp4_sn10 * vn1_vnp4_sn8 - 86 vn2_vnp4_sn10 * vn1_vnp4_sn13
      - 288 vn2_vnp4_sn10 * vn4_vnp4_sn6 - 176 vn2_vnp4_sn10 * vn4_vnp4_sn14
      - 136 vn2_vnp4_sn10 * vn4_vnp4_sn9 - 136 vn2_vnp4_sn10 * vn3_vnp4_sn4
      - 228 vn2_vnp4_sn10 * vn3_vnp4_sn17 - 92 vn2_vnp4_sn10 * vn3_vnp4_sn5
      - 100 vn1_vnp4_sn15 * vn2_vnp4_sn1 - 62 vn1_vnp4_sn15 * vn2_vnp4_sn20
      - 102 vn1_vnp4_sn15 * vn4_vnp4_sn6 - 38 vn1_vnp4_sn15 * vn4_vnp4_sn14
      - 56 vn1_vnp4_sn15 * vn4_vnp4_sn9 - 80 vn1_vnp4_sn15 * vn3_vnp4_sn4
      - 42 vn1_vnp4_sn15 * vn3_vnp4_sn17 - 62 vn1_vnp4_sn15 * vn3_vnp4_sn5
      - 66 vn1_vnp4_sn8 * vn2_vnp4_sn1 - 114 vn1_vnp4_sn8 * vn2_vnp4_sn20
      - 116 vn1_vnp4_sn8 * vn4_vnp4_sn6 - 82 vn1_vnp4_sn8 * vn4_vnp4_sn14
      - 68 vn1_vnp4_sn8 * vn4_vnp4_sn9 - 62 vn1_vnp4_sn8 * vn3_vnp4_sn4
      - 94 vn1_vnp4_sn8 * vn3_vnp4_sn17 - 76 vn1_vnp4_sn8 * vn3_vnp4_sn5
      - 128 vn1_vnp4_sn13 * vn2_vnp4_sn1 - 90 vn1_vnp4_sn13 * vn2_vnp4_sn20
      - 158 vn1_vnp4_sn13 * vn4_vnp4_sn6 - 124 vn1_vnp4_sn13 * vn4_vnp4_sn14
      - 114 vn1_vnp4_sn13 * vn4_vnp4_sn9 - 140 vn1_vnp4_sn13 * vn3_vnp4_sn4
      - 70 vn1_vnp4_sn13 * vn3_vnp4_sn17 - 118 vn1_vnp4_sn13 * vn3_vnp4_sn5
      - 316 vn2_vnp4_sn1 * vn4_vnp4_sn6 - 268 vn2_vnp4_sn1 * vn4_vnp4_sn14
      - 196 vn2_vnp4_sn1 * vn4_vnp4_sn9 - 24 vn2_vnp4_sn1 * vn3_vnp4_sn4
      - 180 vn2_vnp4_sn1 * vn3_vnp4_sn17 - 104 vn2_vnp4_sn1 * vn3_vnp4_sn5
      - 464 vn2_vnp4_sn20 * vn4_vnp4_sn6 - 232 vn2_vnp4_sn20 * vn4_vnp4_sn14
      - 296 vn2_vnp4_sn20 * vn4_vnp4_sn9 - 116 vn2_vnp4_sn20 * vn3_vnp4_sn4
      - 100 vn2_vnp4_sn20 * vn3_vnp4_sn17 - 240 vn2_vnp4_sn20 * vn3_vnp4_sn5
      - 202 vn4_vnp4_sn6 * vn3_vnp4_sn4 - 368 vn4_vnp4_sn6 * vn3_vnp4_sn17
      - 112 vn4_vnp4_sn6 * vn3_vnp4_sn5 - 164 vn4_vnp4_sn14 * vn3_vnp4_sn4
      - 96 vn4_vnp4_sn14 * vn3_vnp4_sn17 - 242 vn4_vnp4_sn14 * vn3_vnp4_sn5
      - 110 vn4_vnp4_sn9 * vn3_vnp4_sn4 - 234 vn4_vnp4_sn9 * vn3_vnp4_sn17
      - 56 vn4_vnp4_sn9 * vn3_vnp4_sn5 - 132 vn4_vnp5_sn7 * vn1_vnp5_sn1
      - 198 vn4_vnp5_sn7 * vn1_vnp5_sn17 - 178 vn4_vnp5_sn7 * vn1_vnp5_sn20
      - 298 vn4_vnp5_sn7 * vn2_vnp5_sn5 - 330 vn4_vnp5_sn7 * vn2_vnp5_sn12
      - 316 vn4_vnp5_sn7 * vn2_vnp5_sn11 - 56 vn4_vnp5_sn7 * vn3_vnp5_sn18
      - 150 vn1_vnp5_sn1 * vn2_vnp5_sn5 - 396 vn1_vnp5_sn1 * vn2_vnp5_sn12
      - 288 vn1_vnp5_sn1 * vn2_vnp5_sn11 - 136 vn1_vnp5_sn1 * vn3_vnp5_sn18
      - 258 vn1_vnp5_sn17 * vn2_vnp5_sn5 - 78 vn1_vnp5_sn17 * vn2_vnp5_sn12
      - 72 vn1_vnp5_sn17 * vn2_vnp5_sn11 - 34 vn1_vnp5_sn17 * vn3_vnp5_sn18
      - 354 vn1_vnp5_sn20 * vn2_vnp5_sn5 - 174 vn1_vnp5_sn20 * vn2_vnp5_sn12
      - 168 vn1_vnp5_sn20 * vn2_vnp5_sn11 - 94 vn1_vnp5_sn20 * vn3_vnp5_sn18
      - 236 vn2_vnp5_sn5 * vn3_vnp5_sn18 - 80 vn2_vnp5_sn12 * vn3_vnp5_sn18
      - 74 vn2_vnp5_sn11 * vn3_vnp5_sn18 - 316 vn4_vnp6_sn19 * vn1_vnp6_sn11
      - 262 vn4_vnp6_sn19 * vn2_vnp6_sn15 - 178 vn4_vnp6_sn19 * vn3_vnp6_sn4
      - 370 vn1_vnp6_sn11 * vn4_vnp6_sn8 - 126 vn1_vnp6_sn11 * vn4_vnp6_sn18
      - 196 vn4_vnp6_sn8 * vn2_vnp6_sn15 - 146 vn4_vnp6_sn8 * vn3_vnp6_sn4
      - 82 vn4_vnp6_sn18 * vn2_vnp6_sn15 - 290 vn4_vnp6_sn18 * vn3_vnp6_sn4
      - 206 vn2_vnp6_sn15 * vn3_vnp6_sn4 - 202 vn3_vnp7_sn12 * vn1_vnp7_sn9
      - 160 vn3_vnp7_sn12 * vn1_vnp7_sn19 - 274 vn3_vnp7_sn12 * vn2_vnp7_sn8
      - 146 vn3_vnp7_sn12 * vn2_vnp7_sn10 - 154 vn3_vnp7_sn12 * vn2_vnp7_sn20
      - 310 vn3_vnp7_sn12 * vn4_vnp7_sn3 - 62 vn1_vnp7_sn9 * vn3_vnp7_sn5
      - 110 vn1_vnp7_sn9 * vn3_vnp7_sn15 - 184 vn1_vnp7_sn9 * vn2_vnp7_sn8
      - 172 vn1_vnp7_sn9 * vn2_vnp7_sn10 - 460 vn1_vnp7_sn9 * vn2_vnp7_sn20
      - 184 vn1_vnp7_sn19 * vn3_vnp7_sn5 - 132 vn1_vnp7_sn19 * vn3_vnp7_sn15
      - 294 vn1_vnp7_sn19 * vn2_vnp7_sn8 - 594 vn1_vnp7_sn19 * vn2_vnp7_sn10
      - 90 vn1_vnp7_sn19 * vn2_vnp7_sn20 - 134 vn3_vnp7_sn5 * vn2_vnp7_sn8
      - 110 vn3_vnp7_sn5 * vn2_vnp7_sn10 - 202 vn3_vnp7_sn5 * vn2_vnp7_sn20
      - 56 vn3_vnp7_sn5 * vn4_vnp7_sn3 - 122 vn3_vnp7_sn15 * vn2_vnp7_sn8
      - 130 vn3_vnp7_sn15 * vn2_vnp7_sn10 - 122 vn3_vnp7_sn15 * vn2_vnp7_sn20
      - 154 vn3_vnp7_sn15 * vn4_vnp7_sn3 - 66 vn3_vnp8_sn9 * vn1_vnp8_sn5
      - 202 vn3_vnp8_sn9 * vn1_vnp8_sn6 - 62 vn3_vnp8_sn9 * vn2_vnp8_sn3
      - 162 vn3_vnp8_sn9 * vn2_vnp8_sn8 - 330 vn1_vnp8_sn5 * vn3_vnp8_sn17
      - 270 vn1_vnp8_sn5 * vn3_vnp8_sn11 - 50 vn1_vnp8_sn5 * vn2_vnp8_sn3
      - 178 vn1_vnp8_sn5 * vn2_vnp8_sn8 - 474 vn1_vnp8_sn6 * vn3_vnp8_sn17
      - 406 vn1_vnp8_sn6 * vn3_vnp8_sn11 - 186 vn1_vnp8_sn6 * vn2_vnp8_sn3
      - 314 vn1_vnp8_sn6 * vn2_vnp8_sn8 - 402 vn3_vnp8_sn17 * vn2_vnp8_sn3
      - 232 vn3_vnp8_sn17 * vn2_vnp8_sn8 - 226 vn3_vnp8_sn11 * vn2_vnp8_sn3
      - 326 vn3_vnp8_sn11 * vn2_vnp8_sn8 - 114 vn4_vnp8_sn20 * vn2_vnp8_sn3
      - 104 vn4_vnp8_sn20 * vn2_vnp8_sn8 - 48 vn2_vnp8_sn3 * vn4_vnp8_sn4
      - 120 vn2_vnp8_sn3 * vn4_vnp8_sn12 - 48 vn2_vnp8_sn8 * vn4_vnp8_sn4
      - 132 vn2_vnp8_sn8 * vn4_vnp8_sn12 ] / 2
Subject To
 _Embedding_clash_const_of_vnode1_vnp_1#0: - vnp1 + vn1_vnp1_sn1 <= 0
 _Embedding_clash_const_of_vnode2_vnp_1#1: - vnp1 + vn2_vnp1_sn18
                                 + vn2_vnp1_sn17 + vn2_vnp1_sn5 <= 0
 _Embedding_clash_const_of_vnode3_vnp_1#2: - vnp1 + vn3_vnp1_sn12 <= 0
 _Embedding_clash_const_of_vnode1_vnp_2#3: - vnp2 + vn1_vnp2_sn2 <= 0
 _Embedding_clash_const_of_vnode2_vnp_2#4: - vnp2 + vn2_vnp2_sn20
                                 + vn2_vnp2_sn3 + vn2_vnp2_sn4 <= 0
 _Embedding_clash_const_of_vnode3_vnp_2#5: - vnp2 + vn3_vnp2_sn17
                                 + vn3_vnp2_sn18 + vn3_vnp2_sn14 <= 0
 _Embedding_clash_const_of_vnode4_vnp_2#6: - vnp2 + vn4_vnp2_sn19
                                 + vn4_vnp2_sn5 <= 0
 _Embedding_clash_const_of_vnode1_vnp_3#7: - vnp3 + vn1_vnp3_sn9
                                 + vn1_vnp3_sn15 <= 0
 _Embedding_clash_const_of_vnode2_vnp_3#8: - vnp3 + vn2_vnp3_sn13 <= 0
 _Embedding_clash_const_of_vnode3_vnp_3#9: - vnp3 + vn3_vnp3_sn14 <= 0
 _Embedding_clash_const_of_vnode4_vnp_3#10: - vnp3 + vn4_vnp3_sn19 <= 0
 _Embedding_clash_const_of_vnode1_vnp_4#11: - vnp4 + vn1_vnp4_sn15
                                 + vn1_vnp4_sn8 + vn1_vnp4_sn13 <= 0
 _Embedding_clash_const_of_vnode2_vnp_4#12: - vnp4 + vn2_vnp4_sn10
                                 + vn2_vnp4_sn1 + vn2_vnp4_sn20 <= 0
 _Embedding_clash_const_of_vnode3_vnp_4#13: - vnp4 + vn3_vnp4_sn4
                                 + vn3_vnp4_sn17 + vn3_vnp4_sn5 <= 0
 _Embedding_clash_const_of_vnode4_vnp_4#14: - vnp4 + vn4_vnp4_sn6
                                 + vn4_vnp4_sn14 + vn4_vnp4_sn9 <= 0
 _Embedding_clash_const_of_vnode1_vnp_5#15: - vnp5 + vn1_vnp5_sn1
                                 + vn1_vnp5_sn17 + vn1_vnp5_sn20 <= 0
 _Embedding_clash_const_of_vnode2_vnp_5#16: - vnp5 + vn2_vnp5_sn5
                                 + vn2_vnp5_sn12 + vn2_vnp5_sn11 <= 0
 _Embedding_clash_const_of_vnode3_vnp_5#17: - vnp5 + vn3_vnp5_sn18 <= 0
 _Embedding_clash_const_of_vnode4_vnp_5#18: - vnp5 + vn4_vnp5_sn7 <= 0
 _Embedding_clash_const_of_vnode1_vnp_6#19: - vnp6 + vn1_vnp6_sn11 <= 0
 _Embedding_clash_const_of_vnode2_vnp_6#20: - vnp6 + vn2_vnp6_sn15 <= 0
 _Embedding_clash_const_of_vnode3_vnp_6#21: - vnp6 + vn3_vnp6_sn4 <= 0
 _Embedding_clash_const_of_vnode4_vnp_6#22: - vnp6 + vn4_vnp6_sn19
                                 + vn4_vnp6_sn8 + vn4_vnp6_sn18 <= 0
 _Embedding_clash_const_of_vnode1_vnp_7#23: - vnp7 + vn1_vnp7_sn9
                                 + vn1_vnp7_sn19 <= 0
 _Embedding_clash_const_of_vnode2_vnp_7#24: - vnp7 + vn2_vnp7_sn8
                                 + vn2_vnp7_sn10 + vn2_vnp7_sn20 <= 0
 _Embedding_clash_const_of_vnode3_vnp_7#25: - vnp7 + vn3_vnp7_sn12
                                 + vn3_vnp7_sn5 + vn3_vnp7_sn15 <= 0
 _Embedding_clash_const_of_vnode4_vnp_7#26: - vnp7 + vn4_vnp7_sn3 <= 0
 _Embedding_clash_const_of_vnode1_vnp_8#27: - vnp8 + vn1_vnp8_sn5
                                 + vn1_vnp8_sn6 <= 0
 _Embedding_clash_const_of_vnode2_vnp_8#28: - vnp8 + vn2_vnp8_sn3
                                 + vn2_vnp8_sn8 <= 0
 _Embedding_clash_const_of_vnode3_vnp_8#29: - vnp8 + vn3_vnp8_sn9
                                 + vn3_vnp8_sn17 + vn3_vnp8_sn11 <= 0
 _Embedding_clash_const_of_vnode4_vnp_8#30: - vnp8 + vn4_vnp8_sn20
                                 + vn4_vnp8_sn4 + vn4_vnp8_sn12 <= 0
 No_partial_embedding_of_Virtual_Network_1_Virtual_Link_1#0: vnp1
                                 + [ - vn2_vnp1_sn18 * vn1_vnp1_sn1
                                 - vn1_vnp1_sn1 * vn2_vnp1_sn17
                                 - vn1_vnp1_sn1 * vn2_vnp1_sn5 ] <= 0
 No_partial_embedding_of_Virtual_Network_1_Virtual_Link_2#1: vnp1
                                 + [ - vn2_vnp1_sn18 * vn3_vnp1_sn12
                                 - vn2_vnp1_sn17 * vn3_vnp1_sn12
                                 - vn2_vnp1_sn5 * vn3_vnp1_sn12 ] <= 0
 No_partial_embedding_of_Virtual_Network_1_Virtual_Link_3#2: vnp1
                                 + [ - vn1_vnp1_sn1 * vn3_vnp1_sn12 ] <= 0
 No_partial_embedding_of_Virtual_Network_2_Virtual_Link_4#3: vnp2
                                 + [ - vn3_vnp2_sn17 * vn1_vnp2_sn2
                                 - vn1_vnp2_sn2 * vn3_vnp2_sn18
                                 - vn1_vnp2_sn2 * vn3_vnp2_sn14 ] <= 0
 No_partial_embedding_of_Virtual_Network_2_Virtual_Link_5#4: vnp2
                                 + [ - vn3_vnp2_sn17 * vn2_vnp2_sn20
                                 - vn3_vnp2_sn17 * vn2_vnp2_sn3
                                 - vn3_vnp2_sn17 * vn2_vnp2_sn4
                                 - vn3_vnp2_sn18 * vn2_vnp2_sn20
                                 - vn3_vnp2_sn18 * vn2_vnp2_sn3
                                 - vn3_vnp2_sn18 * vn2_vnp2_sn4
                                 - vn3_vnp2_sn14 * vn2_vnp2_sn20
                                 - vn3_vnp2_sn14 * vn2_vnp2_sn3
                                 - vn3_vnp2_sn14 * vn2_vnp2_sn4 ] <= 0
 No_partial_embedding_of_Virtual_Network_2_Virtual_Link_6#5: vnp2
                                 + [ - vn3_vnp2_sn17 * vn4_vnp2_sn19
                                 - vn3_vnp2_sn17 * vn4_vnp2_sn5
                                 - vn3_vnp2_sn18 * vn4_vnp2_sn19
                                 - vn3_vnp2_sn18 * vn4_vnp2_sn5
                                 - vn3_vnp2_sn14 * vn4_vnp2_sn19
                                 - vn3_vnp2_sn14 * vn4_vnp2_sn5 ] <= 0
 No_partial_embedding_of_Virtual_Network_2_Virtual_Link_7#6: vnp2
                                 + [ - vn1_vnp2_sn2 * vn2_vnp2_sn20
                                 - vn1_vnp2_sn2 * vn2_vnp2_sn3
                                 - vn1_vnp2_sn2 * vn2_vnp2_sn4 ] <= 0
 No_partial_embedding_of_Virtual_Network_3_Virtual_Link_8#7: vnp3
                                 + [ - vn3_vnp3_sn14 * vn1_vnp3_sn9
                                 - vn3_vnp3_sn14 * vn1_vnp3_sn15 ] <= 0
 No_partial_embedding_of_Virtual_Network_3_Virtual_Link_9#8: vnp3
                                 + [ - vn4_vnp3_sn19 * vn2_vnp3_sn13 ] <= 0
 No_partial_embedding_of_Virtual_Network_3_Virtual_Link_10#9: vnp3
                                 + [ - vn3_vnp3_sn14 * vn4_vnp3_sn19 ] <= 0
 No_partial_embedding_of_Virtual_Network_3_Virtual_Link_11#10: vnp3
                                 + [ - vn1_vnp3_sn9 * vn2_vnp3_sn13
                                 - vn1_vnp3_sn15 * vn2_vnp3_sn13 ] <= 0
 No_partial_embedding_of_Virtual_Network_4_Virtual_Link_12#11: vnp4
                                 + [ - vn2_vnp4_sn10 * vn1_vnp4_sn15
                                 - vn2_vnp4_sn10 * vn1_vnp4_sn8
                                 - vn2_vnp4_sn10 * vn1_vnp4_sn13
                                 - vn1_vnp4_sn15 * vn2_vnp4_sn1
                                 - vn1_vnp4_sn15 * vn2_vnp4_sn20
                                 - vn1_vnp4_sn8 * vn2_vnp4_sn1
                                 - vn1_vnp4_sn8 * vn2_vnp4_sn20
                                 - vn1_vnp4_sn13 * vn2_vnp4_sn1
                                 - vn1_vnp4_sn13 * vn2_vnp4_sn20 ] <= 0
 No_partial_embedding_of_Virtual_Network_4_Virtual_Link_13#12: vnp4
                                 + [ - vn2_vnp4_sn10 * vn4_vnp4_sn6
                                 - vn2_vnp4_sn10 * vn4_vnp4_sn14
                                 - vn2_vnp4_sn10 * vn4_vnp4_sn9
                                 - vn2_vnp4_sn1 * vn4_vnp4_sn6
                                 - vn2_vnp4_sn1 * vn4_vnp4_sn14
                                 - vn2_vnp4_sn1 * vn4_vnp4_sn9
                                 - vn2_vnp4_sn20 * vn4_vnp4_sn6
                                 - vn2_vnp4_sn20 * vn4_vnp4_sn14
                                 - vn2_vnp4_sn20 * vn4_vnp4_sn9 ] <= 0
 No_partial_embedding_of_Virtual_Network_4_Virtual_Link_14#13: vnp4
                                 + [ - vn1_vnp4_sn15 * vn3_vnp4_sn4
                                 - vn1_vnp4_sn15 * vn3_vnp4_sn17
                                 - vn1_vnp4_sn15 * vn3_vnp4_sn5
                                 - vn1_vnp4_sn8 * vn3_vnp4_sn4
                                 - vn1_vnp4_sn8 * vn3_vnp4_sn17
                                 - vn1_vnp4_sn8 * vn3_vnp4_sn5
                                 - vn1_vnp4_sn13 * vn3_vnp4_sn4
                                 - vn1_vnp4_sn13 * vn3_vnp4_sn17
                                 - vn1_vnp4_sn13 * vn3_vnp4_sn5 ] <= 0
 No_partial_embedding_of_Virtual_Network_4_Virtual_Link_15#14: vnp4
                                 + [ - vn1_vnp4_sn15 * vn4_vnp4_sn6
                                 - vn1_vnp4_sn15 * vn4_vnp4_sn14
                                 - vn1_vnp4_sn15 * vn4_vnp4_sn9
                                 - vn1_vnp4_sn8 * vn4_vnp4_sn6
                                 - vn1_vnp4_sn8 * vn4_vnp4_sn14
                                 - vn1_vnp4_sn8 * vn4_vnp4_sn9
                                 - vn1_vnp4_sn13 * vn4_vnp4_sn6
                                 - vn1_vnp4_sn13 * vn4_vnp4_sn14
                                 - vn1_vnp4_sn13 * vn4_vnp4_sn9 ] <= 0
 No_partial_embedding_of_Virtual_Network_4_Virtual_Link_16#15: vnp4
                                 + [ - vn2_vnp4_sn10 * vn3_vnp4_sn4
                                 - vn2_vnp4_sn10 * vn3_vnp4_sn17
                                 - vn2_vnp4_sn10 * vn3_vnp4_sn5
                                 - vn2_vnp4_sn1 * vn3_vnp4_sn4
                                 - vn2_vnp4_sn1 * vn3_vnp4_sn17
                                 - vn2_vnp4_sn1 * vn3_vnp4_sn5
                                 - vn2_vnp4_sn20 * vn3_vnp4_sn4
                                 - vn2_vnp4_sn20 * vn3_vnp4_sn17
                                 - vn2_vnp4_sn20 * vn3_vnp4_sn5 ] <= 0
 No_partial_embedding_of_Virtual_Network_4_Virtual_Link_17#16: vnp4
                                 + [ - vn4_vnp4_sn6 * vn3_vnp4_sn4
                                 - vn4_vnp4_sn6 * vn3_vnp4_sn17
                                 - vn4_vnp4_sn6 * vn3_vnp4_sn5
                                 - vn4_vnp4_sn14 * vn3_vnp4_sn4
                                 - vn4_vnp4_sn14 * vn3_vnp4_sn17
                                 - vn4_vnp4_sn14 * vn3_vnp4_sn5
                                 - vn4_vnp4_sn9 * vn3_vnp4_sn4
                                 - vn4_vnp4_sn9 * vn3_vnp4_sn17
                                 - vn4_vnp4_sn9 * vn3_vnp4_sn5 ] <= 0
 No_partial_embedding_of_Virtual_Network_5_Virtual_Link_18#17: vnp5
                                 + [ - vn4_vnp5_sn7 * vn1_vnp5_sn1
                                 - vn4_vnp5_sn7 * vn1_vnp5_sn17
                                 - vn4_vnp5_sn7 * vn1_vnp5_sn20 ] <= 0
 No_partial_embedding_of_Virtual_Network_5_Virtual_Link_19#18: vnp5
                                 + [ - vn4_vnp5_sn7 * vn2_vnp5_sn5
                                 - vn4_vnp5_sn7 * vn2_vnp5_sn12
                                 - vn4_vnp5_sn7 * vn2_vnp5_sn11 ] <= 0
 No_partial_embedding_of_Virtual_Network_5_Virtual_Link_20#19: vnp5
                                 + [ - vn4_vnp5_sn7 * vn3_vnp5_sn18 ] <= 0
 No_partial_embedding_of_Virtual_Network_5_Virtual_Link_21#20: vnp5
                                 + [ - vn2_vnp5_sn5 * vn3_vnp5_sn18
                                 - vn2_vnp5_sn12 * vn3_vnp5_sn18
                                 - vn2_vnp5_sn11 * vn3_vnp5_sn18 ] <= 0
 No_partial_embedding_of_Virtual_Network_5_Virtual_Link_22#21: vnp5
                                 + [ - vn1_vnp5_sn1 * vn2_vnp5_sn5
                                 - vn1_vnp5_sn1 * vn2_vnp5_sn12
                                 - vn1_vnp5_sn1 * vn2_vnp5_sn11
                                 - vn1_vnp5_sn17 * vn2_vnp5_sn5
                                 - vn1_vnp5_sn17 * vn2_vnp5_sn12
                                 - vn1_vnp5_sn17 * vn2_vnp5_sn11
                                 - vn1_vnp5_sn20 * vn2_vnp5_sn5
                                 - vn1_vnp5_sn20 * vn2_vnp5_sn12
                                 - vn1_vnp5_sn20 * vn2_vnp5_sn11 ] <= 0
 No_partial_embedding_of_Virtual_Network_5_Virtual_Link_23#22: vnp5
                                 + [ - vn1_vnp5_sn1 * vn3_vnp5_sn18
                                 - vn1_vnp5_sn17 * vn3_vnp5_sn18
                                 - vn1_vnp5_sn20 * vn3_vnp5_sn18 ] <= 0
 No_partial_embedding_of_Virtual_Network_6_Virtual_Link_24#23: vnp6
                                 + [ - vn4_vnp6_sn19 * vn1_vnp6_sn11
                                 - vn1_vnp6_sn11 * vn4_vnp6_sn8
                                 - vn1_vnp6_sn11 * vn4_vnp6_sn18 ] <= 0
 No_partial_embedding_of_Virtual_Network_6_Virtual_Link_25#24: vnp6
                                 + [ - vn4_vnp6_sn19 * vn2_vnp6_sn15
                                 - vn4_vnp6_sn8 * vn2_vnp6_sn15
                                 - vn4_vnp6_sn18 * vn2_vnp6_sn15 ] <= 0
 No_partial_embedding_of_Virtual_Network_6_Virtual_Link_26#25: vnp6
                                 + [ - vn2_vnp6_sn15 * vn3_vnp6_sn4 ] <= 0
 No_partial_embedding_of_Virtual_Network_6_Virtual_Link_27#26: vnp6
                                 + [ - vn4_vnp6_sn19 * vn3_vnp6_sn4
                                 - vn4_vnp6_sn8 * vn3_vnp6_sn4
                                 - vn4_vnp6_sn18 * vn3_vnp6_sn4 ] <= 0
 No_partial_embedding_of_Virtual_Network_7_Virtual_Link_28#27: vnp7
                                 + [ - vn3_vnp7_sn12 * vn1_vnp7_sn9
                                 - vn3_vnp7_sn12 * vn1_vnp7_sn19
                                 - vn1_vnp7_sn9 * vn3_vnp7_sn5
                                 - vn1_vnp7_sn9 * vn3_vnp7_sn15
                                 - vn1_vnp7_sn19 * vn3_vnp7_sn5
                                 - vn1_vnp7_sn19 * vn3_vnp7_sn15 ] <= 0
 No_partial_embedding_of_Virtual_Network_7_Virtual_Link_29#28: vnp7
                                 + [ - vn3_vnp7_sn12 * vn2_vnp7_sn8
                                 - vn3_vnp7_sn12 * vn2_vnp7_sn10
                                 - vn3_vnp7_sn12 * vn2_vnp7_sn20
                                 - vn3_vnp7_sn5 * vn2_vnp7_sn8
                                 - vn3_vnp7_sn5 * vn2_vnp7_sn10
                                 - vn3_vnp7_sn5 * vn2_vnp7_sn20
                                 - vn3_vnp7_sn15 * vn2_vnp7_sn8
                                 - vn3_vnp7_sn15 * vn2_vnp7_sn10
                                 - vn3_vnp7_sn15 * vn2_vnp7_sn20 ] <= 0
 No_partial_embedding_of_Virtual_Network_7_Virtual_Link_30#29: vnp7
                                 + [ - vn3_vnp7_sn12 * vn4_vnp7_sn3
                                 - vn3_vnp7_sn5 * vn4_vnp7_sn3
                                 - vn3_vnp7_sn15 * vn4_vnp7_sn3 ] <= 0
 No_partial_embedding_of_Virtual_Network_7_Virtual_Link_31#30: vnp7
                                 + [ - vn1_vnp7_sn9 * vn2_vnp7_sn8
                                 - vn1_vnp7_sn9 * vn2_vnp7_sn10
                                 - vn1_vnp7_sn9 * vn2_vnp7_sn20
                                 - vn1_vnp7_sn19 * vn2_vnp7_sn8
                                 - vn1_vnp7_sn19 * vn2_vnp7_sn10
                                 - vn1_vnp7_sn19 * vn2_vnp7_sn20 ] <= 0
 No_partial_embedding_of_Virtual_Network_8_Virtual_Link_32#31: vnp8
                                 + [ - vn3_vnp8_sn9 * vn1_vnp8_sn5
                                 - vn3_vnp8_sn9 * vn1_vnp8_sn6
                                 - vn1_vnp8_sn5 * vn3_vnp8_sn17
                                 - vn1_vnp8_sn5 * vn3_vnp8_sn11
                                 - vn1_vnp8_sn6 * vn3_vnp8_sn17
                                 - vn1_vnp8_sn6 * vn3_vnp8_sn11 ] <= 0
 No_partial_embedding_of_Virtual_Network_8_Virtual_Link_33#32: vnp8
                                 + [ - vn4_vnp8_sn20 * vn2_vnp8_sn3
                                 - vn4_vnp8_sn20 * vn2_vnp8_sn8
                                 - vn2_vnp8_sn3 * vn4_vnp8_sn4
                                 - vn2_vnp8_sn3 * vn4_vnp8_sn12
                                 - vn2_vnp8_sn8 * vn4_vnp8_sn4
                                 - vn2_vnp8_sn8 * vn4_vnp8_sn12 ] <= 0
 No_partial_embedding_of_Virtual_Network_8_Virtual_Link_34#33: vnp8
                                 + [ - vn3_vnp8_sn9 * vn2_vnp8_sn3
                                 - vn3_vnp8_sn9 * vn2_vnp8_sn8
                                 - vn3_vnp8_sn17 * vn2_vnp8_sn3
                                 - vn3_vnp8_sn17 * vn2_vnp8_sn8
                                 - vn3_vnp8_sn11 * vn2_vnp8_sn3
                                 - vn3_vnp8_sn11 * vn2_vnp8_sn8 ] <= 0
 No_partial_embedding_of_Virtual_Network_8_Virtual_Link_35#34: vnp8
                                 + [ - vn1_vnp8_sn5 * vn2_vnp8_sn3
                                 - vn1_vnp8_sn5 * vn2_vnp8_sn8
                                 - vn1_vnp8_sn6 * vn2_vnp8_sn3
                                 - vn1_vnp8_sn6 * vn2_vnp8_sn8 ] <= 0
 q36#35:                         - 675 vnp1 - 724 vnp2 - 253 vnp3 - 989 vnp4
                                 - 1213 vnp5 - 764 vnp6 - 634 vnp7 - 495 vnp8
                                 + [ 128 vn2_vnp1_sn18 * vn1_vnp1_sn1
                                 + 44 vn2_vnp1_sn18 * vn3_vnp1_sn12
                                 + 162 vn1_vnp1_sn1 * vn2_vnp1_sn17
                                 + 98 vn1_vnp1_sn1 * vn2_vnp1_sn5
                                 + 163 vn1_vnp1_sn1 * vn3_vnp1_sn12
                                 + 36 vn2_vnp1_sn17 * vn3_vnp1_sn12
                                 + 192 vn2_vnp1_sn5 * vn3_vnp1_sn12
                                 + 57 vn3_vnp2_sn17 * vn1_vnp2_sn2
                                 + 82 vn3_vnp2_sn17 * vn2_vnp2_sn20
                                 + 170 vn3_vnp2_sn17 * vn2_vnp2_sn3
                                 + 138 vn3_vnp2_sn17 * vn2_vnp2_sn4
                                 + 34 vn3_vnp2_sn17 * vn4_vnp2_sn19
                                 + 50 vn3_vnp2_sn17 * vn4_vnp2_sn5
                                 + 42 vn1_vnp2_sn2 * vn3_vnp2_sn18
                                 + 31 vn1_vnp2_sn2 * vn3_vnp2_sn14
                                 + 120 vn1_vnp2_sn2 * vn2_vnp2_sn20
                                 + 36 vn1_vnp2_sn2 * vn2_vnp2_sn3
                                 + 32 vn1_vnp2_sn2 * vn2_vnp2_sn4
                                 + 84 vn3_vnp2_sn18 * vn2_vnp2_sn20
                                 + 216 vn3_vnp2_sn18 * vn2_vnp2_sn3
                                 + 140 vn3_vnp2_sn18 * vn2_vnp2_sn4
                                 + 24 vn3_vnp2_sn18 * vn4_vnp2_sn19
                                 + 45 vn3_vnp2_sn18 * vn4_vnp2_sn5
                                 + 122 vn3_vnp2_sn14 * vn2_vnp2_sn20
                                 + 74 vn3_vnp2_sn14 * vn2_vnp2_sn3
                                 + 106 vn3_vnp2_sn14 * vn2_vnp2_sn4
                                 + 45 vn3_vnp2_sn14 * vn4_vnp2_sn19
                                 + 25 vn3_vnp2_sn14 * vn4_vnp2_sn5
                                 + 48 vn3_vnp3_sn14 * vn1_vnp3_sn9
                                 + 40 vn3_vnp3_sn14 * vn1_vnp3_sn15
                                 + 83 vn3_vnp3_sn14 * vn4_vnp3_sn19
                                 + 53 vn1_vnp3_sn9 * vn2_vnp3_sn13
                                 + 20 vn1_vnp3_sn15 * vn2_vnp3_sn13
                                 + 45 vn4_vnp3_sn19 * vn2_vnp3_sn13
                                 + 33 vn2_vnp4_sn10 * vn1_vnp4_sn15
                                 + 48 vn2_vnp4_sn10 * vn1_vnp4_sn8
                                 + 43 vn2_vnp4_sn10 * vn1_vnp4_sn13
                                 + 144 vn2_vnp4_sn10 * vn4_vnp4_sn6
                                 + 88 vn2_vnp4_sn10 * vn4_vnp4_sn14
                                 + 68 vn2_vnp4_sn10 * vn4_vnp4_sn9
                                 + 68 vn2_vnp4_sn10 * vn3_vnp4_sn4
                                 + 114 vn2_vnp4_sn10 * vn3_vnp4_sn17
                                 + 46 vn2_vnp4_sn10 * vn3_vnp4_sn5
                                 + 50 vn1_vnp4_sn15 * vn2_vnp4_sn1
                                 + 31 vn1_vnp4_sn15 * vn2_vnp4_sn20
                                 + 51 vn1_vnp4_sn15 * vn4_vnp4_sn6
                                 + 19 vn1_vnp4_sn15 * vn4_vnp4_sn14
                                 + 28 vn1_vnp4_sn15 * vn4_vnp4_sn9
                                 + 40 vn1_vnp4_sn15 * vn3_vnp4_sn4
                                 + 21 vn1_vnp4_sn15 * vn3_vnp4_sn17
                                 + 31 vn1_vnp4_sn15 * vn3_vnp4_sn5
                                 + 33 vn1_vnp4_sn8 * vn2_vnp4_sn1
                                 + 57 vn1_vnp4_sn8 * vn2_vnp4_sn20
                                 + 58 vn1_vnp4_sn8 * vn4_vnp4_sn6
                                 + 41 vn1_vnp4_sn8 * vn4_vnp4_sn14
                                 + 34 vn1_vnp4_sn8 * vn4_vnp4_sn9
                                 + 31 vn1_vnp4_sn8 * vn3_vnp4_sn4
                                 + 47 vn1_vnp4_sn8 * vn3_vnp4_sn17
                                 + 38 vn1_vnp4_sn8 * vn3_vnp4_sn5
                                 + 64 vn1_vnp4_sn13 * vn2_vnp4_sn1
                                 + 45 vn1_vnp4_sn13 * vn2_vnp4_sn20
                                 + 79 vn1_vnp4_sn13 * vn4_vnp4_sn6
                                 + 62 vn1_vnp4_sn13 * vn4_vnp4_sn14
                                 + 57 vn1_vnp4_sn13 * vn4_vnp4_sn9
                                 + 70 vn1_vnp4_sn13 * vn3_vnp4_sn4
                                 + 35 vn1_vnp4_sn13 * vn3_vnp4_sn17
                                 + 59 vn1_vnp4_sn13 * vn3_vnp4_sn5
                                 + 158 vn2_vnp4_sn1 * vn4_vnp4_sn6
                                 + 134 vn2_vnp4_sn1 * vn4_vnp4_sn14
                                 + 98 vn2_vnp4_sn1 * vn4_vnp4_sn9
                                 + 12 vn2_vnp4_sn1 * vn3_vnp4_sn4
                                 + 90 vn2_vnp4_sn1 * vn3_vnp4_sn17
                                 + 52 vn2_vnp4_sn1 * vn3_vnp4_sn5
                                 + 232 vn2_vnp4_sn20 * vn4_vnp4_sn6
                                 + 116 vn2_vnp4_sn20 * vn4_vnp4_sn14
                                 + 148 vn2_vnp4_sn20 * vn4_vnp4_sn9
                                 + 58 vn2_vnp4_sn20 * vn3_vnp4_sn4
                                 + 50 vn2_vnp4_sn20 * vn3_vnp4_sn17
                                 + 120 vn2_vnp4_sn20 * vn3_vnp4_sn5
                                 + 101 vn4_vnp4_sn6 * vn3_vnp4_sn4
                                 + 184 vn4_vnp4_sn6 * vn3_vnp4_sn17
                                 + 56 vn4_vnp4_sn6 * vn3_vnp4_sn5
                                 + 82 vn4_vnp4_sn14 * vn3_vnp4_sn4
                                 + 48 vn4_vnp4_sn14 * vn3_vnp4_sn17
                                 + 121 vn4_vnp4_sn14 * vn3_vnp4_sn5
                                 + 55 vn4_vnp4_sn9 * vn3_vnp4_sn4
                                 + 117 vn4_vnp4_sn9 * vn3_vnp4_sn17
                                 + 28 vn4_vnp4_sn9 * vn3_vnp4_sn5
                                 + 66 vn4_vnp5_sn7 * vn1_vnp5_sn1
                                 + 99 vn4_vnp5_sn7 * vn1_vnp5_sn17
                                 + 89 vn4_vnp5_sn7 * vn1_vnp5_sn20
                                 + 149 vn4_vnp5_sn7 * vn2_vnp5_sn5
                                 + 165 vn4_vnp5_sn7 * vn2_vnp5_sn12
                                 + 158 vn4_vnp5_sn7 * vn2_vnp5_sn11
                                 + 28 vn4_vnp5_sn7 * vn3_vnp5_sn18
                                 + 75 vn1_vnp5_sn1 * vn2_vnp5_sn5
                                 + 198 vn1_vnp5_sn1 * vn2_vnp5_sn12
                                 + 144 vn1_vnp5_sn1 * vn2_vnp5_sn11
                                 + 68 vn1_vnp5_sn1 * vn3_vnp5_sn18
                                 + 129 vn1_vnp5_sn17 * vn2_vnp5_sn5
                                 + 39 vn1_vnp5_sn17 * vn2_vnp5_sn12
                                 + 36 vn1_vnp5_sn17 * vn2_vnp5_sn11
                                 + 17 vn1_vnp5_sn17 * vn3_vnp5_sn18
                                 + 177 vn1_vnp5_sn20 * vn2_vnp5_sn5
                                 + 87 vn1_vnp5_sn20 * vn2_vnp5_sn12
                                 + 84 vn1_vnp5_sn20 * vn2_vnp5_sn11
                                 + 47 vn1_vnp5_sn20 * vn3_vnp5_sn18
                                 + 118 vn2_vnp5_sn5 * vn3_vnp5_sn18
                                 + 40 vn2_vnp5_sn12 * vn3_vnp5_sn18
                                 + 37 vn2_vnp5_sn11 * vn3_vnp5_sn18
                                 + 158 vn4_vnp6_sn19 * vn1_vnp6_sn11
                                 + 131 vn4_vnp6_sn19 * vn2_vnp6_sn15
                                 + 89 vn4_vnp6_sn19 * vn3_vnp6_sn4
                                 + 185 vn1_vnp6_sn11 * vn4_vnp6_sn8
                                 + 63 vn1_vnp6_sn11 * vn4_vnp6_sn18
                                 + 98 vn4_vnp6_sn8 * vn2_vnp6_sn15
                                 + 73 vn4_vnp6_sn8 * vn3_vnp6_sn4
                                 + 41 vn4_vnp6_sn18 * vn2_vnp6_sn15
                                 + 145 vn4_vnp6_sn18 * vn3_vnp6_sn4
                                 + 103 vn2_vnp6_sn15 * vn3_vnp6_sn4
                                 + 101 vn3_vnp7_sn12 * vn1_vnp7_sn9
                                 + 80 vn3_vnp7_sn12 * vn1_vnp7_sn19
                                 + 137 vn3_vnp7_sn12 * vn2_vnp7_sn8
                                 + 73 vn3_vnp7_sn12 * vn2_vnp7_sn10
                                 + 77 vn3_vnp7_sn12 * vn2_vnp7_sn20
                                 + 155 vn3_vnp7_sn12 * vn4_vnp7_sn3
                                 + 31 vn1_vnp7_sn9 * vn3_vnp7_sn5
                                 + 55 vn1_vnp7_sn9 * vn3_vnp7_sn15
                                 + 92 vn1_vnp7_sn9 * vn2_vnp7_sn8
                                 + 86 vn1_vnp7_sn9 * vn2_vnp7_sn10
                                 + 230 vn1_vnp7_sn9 * vn2_vnp7_sn20
                                 + 92 vn1_vnp7_sn19 * vn3_vnp7_sn5
                                 + 66 vn1_vnp7_sn19 * vn3_vnp7_sn15
                                 + 147 vn1_vnp7_sn19 * vn2_vnp7_sn8
                                 + 297 vn1_vnp7_sn19 * vn2_vnp7_sn10
                                 + 45 vn1_vnp7_sn19 * vn2_vnp7_sn20
                                 + 67 vn3_vnp7_sn5 * vn2_vnp7_sn8
                                 + 55 vn3_vnp7_sn5 * vn2_vnp7_sn10
                                 + 101 vn3_vnp7_sn5 * vn2_vnp7_sn20
                                 + 28 vn3_vnp7_sn5 * vn4_vnp7_sn3
                                 + 61 vn3_vnp7_sn15 * vn2_vnp7_sn8
                                 + 65 vn3_vnp7_sn15 * vn2_vnp7_sn10
                                 + 61 vn3_vnp7_sn15 * vn2_vnp7_sn20
                                 + 77 vn3_vnp7_sn15 * vn4_vnp7_sn3
                                 + 33 vn3_vnp8_sn9 * vn1_vnp8_sn5
                                 + 101 vn3_vnp8_sn9 * vn1_vnp8_sn6
                                 + 31 vn3_vnp8_sn9 * vn2_vnp8_sn3
                                 + 81 vn3_vnp8_sn9 * vn2_vnp8_sn8
                                 + 165 vn1_vnp8_sn5 * vn3_vnp8_sn17
                                 + 135 vn1_vnp8_sn5 * vn3_vnp8_sn11
                                 + 25 vn1_vnp8_sn5 * vn2_vnp8_sn3
                                 + 89 vn1_vnp8_sn5 * vn2_vnp8_sn8
                                 + 237 vn1_vnp8_sn6 * vn3_vnp8_sn17
                                 + 203 vn1_vnp8_sn6 * vn3_vnp8_sn11
                                 + 93 vn1_vnp8_sn6 * vn2_vnp8_sn3
                                 + 157 vn1_vnp8_sn6 * vn2_vnp8_sn8
                                 + 201 vn3_vnp8_sn17 * vn2_vnp8_sn3
                                 + 116 vn3_vnp8_sn17 * vn2_vnp8_sn8
                                 + 113 vn3_vnp8_sn11 * vn2_vnp8_sn3
                                 + 163 vn3_vnp8_sn11 * vn2_vnp8_sn8
                                 + 57 vn4_vnp8_sn20 * vn2_vnp8_sn3
                                 + 52 vn4_vnp8_sn20 * vn2_vnp8_sn8
                                 + 24 vn2_vnp8_sn3 * vn4_vnp8_sn4
                                 + 60 vn2_vnp8_sn3 * vn4_vnp8_sn12
                                 + 24 vn2_vnp8_sn8 * vn4_vnp8_sn4
                                 + 66 vn2_vnp8_sn8 * vn4_vnp8_sn12 ] <= 0
Lazy Constraints
 CPU_capacity_of_substrate_node_1#0: 4 vn1_vnp1_sn1 + 2 vn2_vnp4_sn1
                                 + 3 vn1_vnp5_sn1 <= 8
 CPU_capacity_of_substrate_node_2#1: 4 vn1_vnp2_sn2 <= 5
 CPU_capacity_of_substrate_node_3#2: 4 vn2_vnp2_sn3 + 3 vn4_vnp7_sn3
                                 + 2 vn2_vnp8_sn3 <= 3
 CPU_capacity_of_substrate_node_4#3: 4 vn2_vnp2_sn4 + 4 vn3_vnp4_sn4
                                 + 5 vn3_vnp6_sn4 + 2 vn4_vnp8_sn4 <= 3
 CPU_capacity_of_substrate_node_5#4: 2 vn2_vnp1_sn5 + 4 vn4_vnp2_sn5
                                 + 4 vn3_vnp4_sn5 + 3 vn2_vnp5_sn5
                                 + 4 vn3_vnp7_sn5 + 3 vn1_vnp8_sn5 <= 7
 CPU_capacity_of_substrate_node_6#5: 2 vn4_vnp4_sn6 + 3 vn1_vnp8_sn6 <= 8
 CPU_capacity_of_substrate_node_7#6: 2 vn4_vnp5_sn7 <= 5
 CPU_capacity_of_substrate_node_8#7: 3 vn1_vnp4_sn8 + 4 vn4_vnp6_sn8
                                 + 5 vn2_vnp7_sn8 + 2 vn2_vnp8_sn8 <= 4
 CPU_capacity_of_substrate_node_9#8: 2 vn1_vnp3_sn9 + 2 vn4_vnp4_sn9
                                 + 5 vn1_vnp7_sn9 + 2 vn3_vnp8_sn9 <= 7
 CPU_capacity_of_substrate_node_10#9: 2 vn2_vnp4_sn10 + 5 vn2_vnp7_sn10 <= 2
 CPU_capacity_of_substrate_node_11#10: 3 vn2_vnp5_sn11 + 5 vn1_vnp6_sn11
                                 + 2 vn3_vnp8_sn11 <= 6
 CPU_capacity_of_substrate_node_12#11: vn3_vnp1_sn12 + 3 vn2_vnp5_sn12
                                 + 4 vn3_vnp7_sn12 + 2 vn4_vnp8_sn12 <= 3
 CPU_capacity_of_substrate_node_13#12: vn2_vnp3_sn13 + 3 vn1_vnp4_sn13 <= 8
 CPU_capacity_of_substrate_node_14#13: 2 vn3_vnp2_sn14 + 5 vn3_vnp3_sn14
                                 + 2 vn4_vnp4_sn14 <= 8
 CPU_capacity_of_substrate_node_15#14: 2 vn1_vnp3_sn15 + 3 vn1_vnp4_sn15
                                 + 4 vn2_vnp6_sn15 + 4 vn3_vnp7_sn15 <= 0
 CPU_capacity_of_substrate_node_17#15: 2 vn2_vnp1_sn17 + 2 vn3_vnp2_sn17
                                 + 4 vn3_vnp4_sn17 + 3 vn1_vnp5_sn17
                                 + 2 vn3_vnp8_sn17 <= 8
 CPU_capacity_of_substrate_node_18#16: 2 vn2_vnp1_sn18 + 2 vn3_vnp2_sn18
                                 + 2 vn3_vnp5_sn18 + 4 vn4_vnp6_sn18 <= 4
 CPU_capacity_of_substrate_node_19#17: 4 vn4_vnp2_sn19 + 3 vn4_vnp3_sn19
                                 + 4 vn4_vnp6_sn19 + 5 vn1_vnp7_sn19 <= 4
 CPU_capacity_of_substrate_node_20#18: 4 vn2_vnp2_sn20 + 2 vn2_vnp4_sn20
                                 + 3 vn1_vnp5_sn20 + 5 vn2_vnp7_sn20
                                 + 2 vn4_vnp8_sn20 <= 4
Bounds
 0 <= vnp1 <= 1
 0 <= vn2_vnp1_sn18 <= 1
 0 <= vn1_vnp1_sn1 <= 1
 0 <= vn2_vnp1_sn17 <= 1
 0 <= vn2_vnp1_sn5 <= 1
 0 <= vn3_vnp1_sn12 <= 1
 0 <= vnp2 <= 1
 0 <= vn3_vnp2_sn17 <= 1
 0 <= vn1_vnp2_sn2 <= 1
 0 <= vn3_vnp2_sn18 <= 1
 0 <= vn3_vnp2_sn14 <= 1
 0 <= vn2_vnp2_sn20 <= 1
 0 <= vn2_vnp2_sn3 <= 1
 0 <= vn2_vnp2_sn4 <= 1
 0 <= vn4_vnp2_sn19 <= 1
 0 <= vn4_vnp2_sn5 <= 1
 0 <= vnp3 <= 1
 0 <= vn3_vnp3_sn14 <= 1
 0 <= vn1_vnp3_sn9 <= 1
 0 <= vn1_vnp3_sn15 <= 1
 0 <= vn4_vnp3_sn19 <= 1
 0 <= vn2_vnp3_sn13 <= 1
 0 <= vnp4 <= 1
 0 <= vn2_vnp4_sn10 <= 1
 0 <= vn1_vnp4_sn15 <= 1
 0 <= vn1_vnp4_sn8 <= 1
 0 <= vn1_vnp4_sn13 <= 1
 0 <= vn2_vnp4_sn1 <= 1
 0 <= vn2_vnp4_sn20 <= 1
 0 <= vn4_vnp4_sn6 <= 1
 0 <= vn4_vnp4_sn14 <= 1
 0 <= vn4_vnp4_sn9 <= 1
 0 <= vn3_vnp4_sn4 <= 1
 0 <= vn3_vnp4_sn17 <= 1
 0 <= vn3_vnp4_sn5 <= 1
 0 <= vnp5 <= 1
 0 <= vn4_vnp5_sn7 <= 1
 0 <= vn1_vnp5_sn1 <= 1
 0 <= vn1_vnp5_sn17 <= 1
 0 <= vn1_vnp5_sn20 <= 1
 0 <= vn2_vnp5_sn5 <= 1
 0 <= vn2_vnp5_sn12 <= 1
 0 <= vn2_vnp5_sn11 <= 1
 0 <= vn3_vnp5_sn18 <= 1
 0 <= vnp6 <= 1
 0 <= vn4_vnp6_sn19 <= 1
 0 <= vn1_vnp6_sn11 <= 1
 0 <= vn4_vnp6_sn8 <= 1
 0 <= vn4_vnp6_sn18 <= 1
 0 <= vn2_vnp6_sn15 <= 1
 0 <= vn3_vnp6_sn4 <= 1
 0 <= vnp7 <= 1
 0 <= vn3_vnp7_sn12 <= 1
 0 <= vn1_vnp7_sn9 <= 1
 0 <= vn1_vnp7_sn19 <= 1
 0 <= vn3_vnp7_sn5 <= 1
 0 <= vn3_vnp7_sn15 <= 1
 0 <= vn2_vnp7_sn8 <= 1
 0 <= vn2_vnp7_sn10 <= 1
 0 <= vn2_vnp7_sn20 <= 1
 0 <= vn4_vnp7_sn3 <= 1
 0 <= vnp8 <= 1
 0 <= vn3_vnp8_sn9 <= 1
 0 <= vn1_vnp8_sn5 <= 1
 0 <= vn1_vnp8_sn6 <= 1
 0 <= vn3_vnp8_sn17 <= 1
 0 <= vn3_vnp8_sn11 <= 1
 0 <= vn4_vnp8_sn20 <= 1
 0 <= vn2_vnp8_sn3 <= 1
 0 <= vn2_vnp8_sn8 <= 1
 0 <= vn4_vnp8_sn4 <= 1
 0 <= vn4_vnp8_sn12 <= 1
Binaries
 vnp1  vn2_vnp1_sn18  vn1_vnp1_sn1  vn2_vnp1_sn17  vn2_vnp1_sn5  vn3_vnp1_sn12 
 vnp2  vn3_vnp2_sn17  vn1_vnp2_sn2  vn3_vnp2_sn18  vn3_vnp2_sn14 
 vn2_vnp2_sn20  vn2_vnp2_sn3  vn2_vnp2_sn4  vn4_vnp2_sn19  vn4_vnp2_sn5  vnp3 
 vn3_vnp3_sn14  vn1_vnp3_sn9  vn1_vnp3_sn15  vn4_vnp3_sn19  vn2_vnp3_sn13 
 vnp4  vn2_vnp4_sn10  vn1_vnp4_sn15  vn1_vnp4_sn8  vn1_vnp4_sn13  vn2_vnp4_sn1 
 vn2_vnp4_sn20  vn4_vnp4_sn6  vn4_vnp4_sn14  vn4_vnp4_sn9  vn3_vnp4_sn4 
 vn3_vnp4_sn17  vn3_vnp4_sn5  vnp5  vn4_vnp5_sn7  vn1_vnp5_sn1  vn1_vnp5_sn17 
 vn1_vnp5_sn20  vn2_vnp5_sn5  vn2_vnp5_sn12  vn2_vnp5_sn11  vn3_vnp5_sn18 
 vnp6  vn4_vnp6_sn19  vn1_vnp6_sn11  vn4_vnp6_sn8  vn4_vnp6_sn18 
 vn2_vnp6_sn15  vn3_vnp6_sn4  vnp7  vn3_vnp7_sn12  vn1_vnp7_sn9  vn1_vnp7_sn19 
 vn3_vnp7_sn5  vn3_vnp7_sn15  vn2_vnp7_sn8  vn2_vnp7_sn10  vn2_vnp7_sn20 
 vn4_vnp7_sn3  vnp8  vn3_vnp8_sn9  vn1_vnp8_sn5  vn1_vnp8_sn6  vn3_vnp8_sn17 
 vn3_vnp8_sn11  vn4_vnp8_sn20  vn2_vnp8_sn3  vn2_vnp8_sn8  vn4_vnp8_sn4 
 vn4_vnp8_sn12 
End
